c WARNING: for repeatability, setting FPU to use double precision
d VARIABLES            141558       
d CONSTRAINTS          595356       
c ============================[ Problem Statistics ]=============================
c |                                                                             |
c |  Number of variables:        141558                                         |
c |  Number of clauses:          595356                                         |
c |  Parse time:                   0.10 s                                       |
c |                                                                             |
c ============================[ Search Statistics ]==============================
c | Conflicts |          ORIGINAL         |          LEARNT          | Progress |
c |           |    Vars  Clauses Literals |    Limit  Clauses Lit/Cl |          |
c ===============================================================================
c |       100 |  111388   517134  1257275 |   189615      100    122 | 21.313 % |
c |       250 |  111388   517134  1257275 |   208577      250     92 | 21.313 % |
c |       475 |  111388   517134  1257275 |   229435      475     86 | 21.313 % |
c |       812 |  111388   517134  1257275 |   252378      812    105 | 21.313 % |
c |      1318 |  111388   517134  1257275 |   277616     1318     99 | 21.313 % |
c |      2077 |  111388   517134  1257275 |   305378     2077    102 | 21.313 % |
c |      3216 |  111388   517134  1257275 |   335915     3216    116 | 21.313 % |
c |      4924 |  111388   517134  1257275 |   369507     4924    119 | 21.313 % |
c |      7486 |  111388   517134  1257275 |   406458     7486    119 | 21.313 % |
c |     11330 |  111388   517134  1257275 |   447104    11330    116 | 21.313 % |
c |     17096 |  111388   517134  1257275 |   491814    17096    129 | 21.313 % |
c |     25745 |  111388   517134  1257275 |   540996    25745    139 | 21.313 % |
c |     38719 |  111388   517134  1257275 |   595095    38719    143 | 21.313 % |
c |     58180 |  111388   517134  1257275 |   654605    58180    147 | 21.313 % |
c |     87372 |  111388   517134  1257275 |   720065    87372    145 | 21.313 % |
c |    131161 |  111388   517134  1257275 |   792072   131161    141 | 21.313 % |
c |    196845 |  111388   517134  1257275 |   871279   196845    139 | 21.313 % |
c |    295371 |  111388   517134  1257275 |   958407   295371    142 | 21.313 % |
c |    443160 |  111388   517134  1257275 |  1054248   443160    140 | 21.313 % |
c |    664843 |  111388   517134  1257275 |  1159672   664843    146 | 21.313 % |
c |    997368 |  111388   517134  1257275 |  1275640   997368    143 | 21.313 % |
c |   1496156 |  111388   517134  1257275 |  1403204   219551    118 | 21.313 % |
c ===============================================================================
c restarts              : 4093
c conflicts             : 2111412        (1177 /sec)
c decisions             : 5375084        (0.00 % random) (2995 /sec)
c propagations          : 3286401684     (1831370 /sec)
c conflict literals     : 298121208      (42.98 % deleted)
d RESTARTS             4093
d FAILURES             2111412      
d NODES                5375084      
d BACKTRACKS           5375084      
d PROPAGATIONS         3286401684   
d NOGOODSIZE           141.20 
d MEMORY               1045.00 
d TIME                 1794.5 

s UNKNOWN
